8142
4, 25, 28, 27, 26, 47, 14, 13, 52, 11, 12, 51, 33, 43, 10, 9, 8, 41, 19, 45, 32, 49, 36, 35, 34, 44, 16, 29, 50, 20, 30, 7, 2, 42, 21, 17, 3, 18, 31, 23, 22, 1, 39, 40, 37, 46, 24, 48, 38, 15, 5, 6
